c A SAT instance generated from a 3-CNF formula that had 22 clauses and 11 variables
p cnf 11 22
3 -8 -5 0
4 -1 3 0
1 -6 5 0
1 -9 -5 0
-3 11 -8 0
6 -2 1 0
3 7 11 0
7 6 5 0
8 -7 -1 0
11 -10 -2 0
4 -6 9 0
6 -10 9 0
-1 9 5 0
-7 -4 -8 0
-2 3 -5 0
3 -2 10 0
3 -1 -6 0
-3 -9 5 0
10 -2 -8 0
1 8 2 0
-8 -2 3 0
-1 7 11 0
